20	4	17	16	11	9	13	14	17	2
8	3	1	16	20	4	16	12	20	5
19	4	15	10	1	9	18	2	13	2
16	7	3	13	17	19	15	14	5	16
16	14	9	6	16	2	14	3	12	15
20	20	13	2	1	20	10	5	14	20
1	8	16	18	12	9	15	16	14	5
12	2	18	9	16	11	17	8	20	11
5	12	7	14	13	6	5	4	15	16
